flow=[(5,1,0)(5,2,0)(5,4,0)(5,6,0)(5,8,0)(5,10,0)(5,11,0)(5,12,0)(6,5,8)(6,7,3)(6,10,5)(6,11,10)(7,6,1)(10,9,3)(10,12,3)(11,5,3)(11,6,14)(12,5,0)(12,6,25)(12,8,0)(12,9,0)(12,10,0)(12,11,0)(13,12,3)];
